nK = 1359;
nT = 6;
nI = 14;
L = 35;
TT = 364;
np = 1;
nc = 3;
b = [65, 57, 63, 45, 58, 35, 64, 37, 50, 26, 33, 63, 27, 46];
d = [109, 94, 118, 81, 107, 103, 139, 111, 140, 132, 70, 150, 121, 118];
m = [2, 1.7, 1.3, 1.1, 2.3, 1.7, 1.9, 1.5, 1.1, 1.8, 2, 1.6, 1.9, 1.5];
pt = [0.32, 0.26, 0.33, 0.3, 0.29, 0.3];
st = [13.44, 10.66, 17.82, 13.8, 13.63, 16.8];
arc = {<1, 0, 1, 1, 0, 0, 0, [1, 1, 1, 1, 1, 1]>, <2, 1, 2, 1, 0, 0, 0, [1, 1, 1, 1, 1, 1]>, <3, 2, 3, 1, 0, 0, 0, [1, 1, 1, 1, 1, 1]>, <4, 3, 4, 1, 0, 0, 0, [1, 1, 1, 1, 1, 1]>, <5, 4, 5, 1, 0, 0, 0, [1, 1, 1, 1, 1, 1]>, <6, 5, 6, 1, 0, 0, 0, [1, 1, 1, 1, 1, 1]>, <7, 6, 7, 1, 0, 0, 0, [1, 1, 1, 1, 1, 1]>, <8, 7, 8, 1, 0, 0, 0, [1, 1, 1, 1, 1, 1]>, <9, 8, 9, 1, 0, 0, 0, [1, 1, 1, 1, 1, 1]>, <10, 9, 10, 1, 0, 0, 0, [1, 1, 1, 1, 1, 1]>, <11, 10, 11, 1, 0, 0, 0, [1, 1, 1, 1, 1, 1]>, <12, 11, 12, 1, 0, 0, 0, [1, 1, 1, 1, 1, 1]>, <13, 12, 13, 1, 0, 0, 0, [1, 1, 1, 1, 1, 1]>, <14, 13, 14, 1, 0, 0, 0, [1, 1, 1, 1, 1, 1]>, <15, 14, 15, 1, 0, 0, 0, [1, 1, 1, 1, 1, 1]>, <16, 15, 16, 1, 0, 0, 0, [1, 1, 1, 1, 1, 1]>, <17, 16, 17, 1, 0, 0, 0, [1, 1, 1, 1, 1, 1]>, <18, 17, 18, 1, 0, 0, 0, [1, 1, 1, 1, 1, 1]>, <19, 18, 19, 1, 0, 0, 0, [1, 1, 1, 1, 1, 1]>, <20, 19, 20, 1, 0, 0, 0, [1, 1, 1, 1, 1, 1]>, <21, 20, 21, 1, 0, 0, 0, [1, 1, 1, 1, 1, 1]>, <22, 21, 22, 1, 0, 0, 0, [1, 1, 1, 1, 1, 1]>, <23, 22, 23, 1, 0, 0, 0, [1, 1, 1, 1, 1, 1]>, <24, 23, 24, 1, 0, 0, 0, [1, 1, 1, 1, 1, 1]>, <25, 24, 25, 1, 0, 0, 0, [1, 1, 1, 1, 1, 1]>, <26, 25, 26, 1, 0, 0, 0, [1, 1, 1, 1, 1, 1]>, <27, 26, 27, 1, 0, 0, 0, [1, 1, 1, 1, 1, 1]>, <28, 27, 28, 1, 0, 0, 0, [1, 1, 1, 1, 1, 1]>, <29, 28, 29, 1, 0, 0, 0, [1, 1, 1, 1, 1, 1]>, <30, 29, 30, 1, 0, 0, 0, [1, 1, 1, 1, 1, 1]>, <31, 30, 31, 1, 0, 0, 0, [1, 1, 1, 1, 1, 1]>, <32, 31, 32, 1, 0, 0, 0, [1, 1, 1, 1, 1, 1]>, <33, 32, 33, 1, 0, 0, 0, [1, 1, 1, 1, 1, 1]>, <34, 33, 34, 1, 0, 0, 0, [1, 1, 1, 1, 1, 1]>, <35, 34, 35, 1, 0, 0, 0, [1, 1, 1, 1, 1, 1]>, <36, 0, 17, 17, 1, 0, 0, [1, 1, 0, 0, 0, 0]>, <37, 1, 18, 17, 1, 0, 0, [1, 1, 0, 0, 0, 0]>, <38, 2, 19, 17, 1, 0, 0, [1, 1, 0, 0, 0, 0]>, <39, 3, 20, 17, 1, 0, 0, [1, 1, 0, 0, 0, 0]>, <40, 4, 21, 17, 1, 0, 0, [1, 1, 0, 0, 0, 0]>, <41, 5, 22, 17, 1, 0, 0, [1, 1, 0, 0, 0, 0]>, <42, 6, 23, 17, 1, 0, 0, [1, 1, 0, 0, 0, 0]>, <43, 9, 26, 17, 1, 0, 0, [1, 1, 0, 0, 0, 0]>, <44, 10, 27, 17, 1, 0, 0, [1, 1, 0, 0, 0, 0]>, <45, 11, 28, 17, 1, 0, 0, [1, 1, 0, 0, 0, 0]>, <46, 12, 29, 17, 1, 0, 0, [1, 1, 0, 0, 0, 0]>, <47, 13, 30, 17, 1, 0, 0, [1, 1, 0, 0, 0, 0]>, <48, 14, 31, 17, 1, 0, 0, [1, 1, 0, 0, 0, 0]>, <49, 15, 32, 17, 1, 0, 0, [1, 1, 0, 0, 0, 0]>, <50, 16, 33, 17, 1, 0, 0, [1, 1, 0, 0, 0, 0]>, <51, 17, 34, 17, 1, 0, 0, [1, 1, 0, 0, 0, 0]>, <52, 18, 35, 17, 1, 0, 0, [1, 1, 0, 0, 0, 0]>, <53, 0, 17, 17, 2, 0, 1, [0, 0, 0, 1, 1, 0]>, <54, 1, 18, 17, 2, 0, 1, [0, 0, 0, 1, 1, 0]>, <55, 2, 19, 17, 2, 0, 1, [0, 0, 0, 1, 1, 0]>, <56, 3, 20, 17, 2, 0, 1, [0, 0, 0, 1, 1, 0]>, <57, 4, 21, 17, 2, 0, 1, [0, 0, 0, 1, 1, 0]>, <58, 5, 22, 17, 2, 0, 1, [0, 0, 0, 1, 1, 0]>, <59, 6, 23, 17, 2, 0, 1, [0, 0, 0, 1, 1, 0]>, <60, 9, 26, 17, 2, 0, 1, [0, 0, 0, 1, 1, 0]>, <61, 10, 27, 17, 2, 0, 1, [0, 0, 0, 1, 1, 0]>, <62, 11, 28, 17, 2, 0, 1, [0, 0, 0, 1, 1, 0]>, <63, 12, 29, 17, 2, 0, 1, [0, 0, 0, 1, 1, 0]>, <64, 13, 30, 17, 2, 0, 1, [0, 0, 0, 1, 1, 0]>, <65, 14, 31, 17, 2, 0, 1, [0, 0, 0, 1, 1, 0]>, <66, 15, 32, 17, 2, 0, 1, [0, 0, 0, 1, 1, 0]>, <67, 16, 33, 17, 2, 0, 1, [0, 0, 0, 1, 1, 0]>, <68, 17, 34, 17, 2, 0, 1, [0, 0, 0, 1, 1, 0]>, <69, 18, 35, 17, 2, 0, 1, [0, 0, 0, 1, 1, 0]>, <70, 2, 17, 15, 3, 0, 1, [0, 1, 1, 0, 0, 0]>, <71, 3, 18, 15, 3, 0, 1, [0, 1, 1, 0, 0, 0]>, <72, 4, 19, 15, 3, 0, 1, [0, 1, 1, 0, 0, 0]>, <73, 5, 20, 15, 3, 0, 1, [0, 1, 1, 0, 0, 0]>, <74, 6, 21, 15, 3, 0, 1, [0, 1, 1, 0, 0, 0]>, <75, 11, 26, 15, 3, 0, 1, [0, 1, 1, 0, 0, 0]>, <76, 12, 27, 15, 3, 0, 1, [0, 1, 1, 0, 0, 0]>, <77, 13, 28, 15, 3, 0, 1, [0, 1, 1, 0, 0, 0]>, <78, 14, 29, 15, 3, 0, 1, [0, 1, 1, 0, 0, 0]>, <79, 15, 30, 15, 3, 0, 1, [0, 1, 1, 0, 0, 0]>, <80, 16, 31, 15, 3, 0, 1, [0, 1, 1, 0, 0, 0]>, <81, 17, 32, 15, 3, 0, 1, [0, 1, 1, 0, 0, 0]>, <82, 18, 33, 15, 3, 0, 1, [0, 1, 1, 0, 0, 0]>, <83, 19, 34, 15, 3, 0, 1, [0, 1, 1, 0, 0, 0]>, <84, 20, 35, 15, 3, 0, 1, [0, 1, 1, 0, 0, 0]>, <85, 4, 17, 13, 4, 0, 1, [1, 1, 0, 0, 0, 0]>, <86, 5, 18, 13, 4, 0, 1, [1, 1, 0, 0, 0, 0]>, <87, 6, 19, 13, 4, 0, 1, [1, 1, 0, 0, 0, 0]>, <88, 13, 26, 13, 4, 0, 1, [1, 1, 0, 0, 0, 0]>, <89, 14, 27, 13, 4, 0, 1, [1, 1, 0, 0, 0, 0]>, <90, 15, 28, 13, 4, 0, 1, [1, 1, 0, 0, 0, 0]>, <91, 18, 31, 13, 4, 0, 1, [1, 1, 0, 0, 0, 0]>, <92, 19, 32, 13, 4, 0, 1, [1, 1, 0, 0, 0, 0]>, <93, 20, 33, 13, 4, 0, 1, [1, 1, 0, 0, 0, 0]>, <94, 21, 34, 13, 4, 0, 1, [1, 1, 0, 0, 0, 0]>, <95, 22, 35, 13, 4, 0, 1, [1, 1, 0, 0, 0, 0]>, <96, 2, 17, 15, 5, 0, 0, [1, 1, 0, 0, 0, 0]>, <97, 3, 18, 15, 5, 0, 0, [1, 1, 0, 0, 0, 0]>, <98, 4, 19, 15, 5, 0, 0, [1, 1, 0, 0, 0, 0]>, <99, 5, 20, 15, 5, 0, 0, [1, 1, 0, 0, 0, 0]>, <100, 6, 21, 15, 5, 0, 0, [1, 1, 0, 0, 0, 0]>, <101, 11, 26, 15, 5, 0, 0, [1, 1, 0, 0, 0, 0]>, <102, 12, 27, 15, 5, 0, 0, [1, 1, 0, 0, 0, 0]>, <103, 13, 28, 15, 5, 0, 0, [1, 1, 0, 0, 0, 0]>, <104, 14, 29, 15, 5, 0, 0, [1, 1, 0, 0, 0, 0]>, <105, 15, 30, 15, 5, 0, 0, [1, 1, 0, 0, 0, 0]>, <106, 16, 31, 15, 5, 0, 0, [1, 1, 0, 0, 0, 0]>, <107, 17, 32, 15, 5, 0, 0, [1, 1, 0, 0, 0, 0]>, <108, 18, 33, 15, 5, 0, 0, [1, 1, 0, 0, 0, 0]>, <109, 19, 34, 15, 5, 0, 0, [1, 1, 0, 0, 0, 0]>, <110, 20, 35, 15, 5, 0, 0, [1, 1, 0, 0, 0, 0]>, <111, 4, 17, 13, 6, 0, 0, [0, 0, 1, 1, 0, 0]>, <112, 5, 18, 13, 6, 0, 0, [0, 0, 1, 1, 0, 0]>, <113, 6, 19, 13, 6, 0, 0, [0, 0, 1, 1, 0, 0]>, <114, 13, 26, 13, 6, 0, 0, [0, 0, 1, 1, 0, 0]>, <115, 14, 27, 13, 6, 0, 0, [0, 0, 1, 1, 0, 0]>, <116, 15, 28, 13, 6, 0, 0, [0, 0, 1, 1, 0, 0]>, <117, 18, 31, 13, 6, 0, 0, [0, 0, 1, 1, 0, 0]>, <118, 19, 32, 13, 6, 0, 0, [0, 0, 1, 1, 0, 0]>, <119, 20, 33, 13, 6, 0, 0, [0, 0, 1, 1, 0, 0]>, <120, 21, 34, 13, 6, 0, 0, [0, 0, 1, 1, 0, 0]>, <121, 22, 35, 13, 6, 0, 0, [0, 0, 1, 1, 0, 0]>, <122, 4, 17, 13, 7, 0, 0, [0, 1, 1, 0, 0, 0]>, <123, 5, 18, 13, 7, 0, 0, [0, 1, 1, 0, 0, 0]>, <124, 6, 19, 13, 7, 0, 0, [0, 1, 1, 0, 0, 0]>, <125, 13, 26, 13, 7, 0, 0, [0, 1, 1, 0, 0, 0]>, <126, 14, 27, 13, 7, 0, 0, [0, 1, 1, 0, 0, 0]>, <127, 15, 28, 13, 7, 0, 0, [0, 1, 1, 0, 0, 0]>, <128, 18, 31, 13, 7, 0, 0, [0, 1, 1, 0, 0, 0]>, <129, 19, 32, 13, 7, 0, 0, [0, 1, 1, 0, 0, 0]>, <130, 20, 33, 13, 7, 0, 0, [0, 1, 1, 0, 0, 0]>, <131, 21, 34, 13, 7, 0, 0, [0, 1, 1, 0, 0, 0]>, <132, 22, 35, 13, 7, 0, 0, [0, 1, 1, 0, 0, 0]>, <133, 3, 17, 14, 8, 0, 1, [0, 1, 1, 0, 0, 0]>, <134, 4, 18, 14, 8, 0, 1, [0, 1, 1, 0, 0, 0]>, <135, 5, 19, 14, 8, 0, 1, [0, 1, 1, 0, 0, 0]>, <136, 6, 20, 14, 8, 0, 1, [0, 1, 1, 0, 0, 0]>, <137, 12, 26, 14, 8, 0, 1, [0, 1, 1, 0, 0, 0]>, <138, 13, 27, 14, 8, 0, 1, [0, 1, 1, 0, 0, 0]>, <139, 14, 28, 14, 8, 0, 1, [0, 1, 1, 0, 0, 0]>, <140, 15, 29, 14, 8, 0, 1, [0, 1, 1, 0, 0, 0]>, <141, 17, 31, 14, 8, 0, 1, [0, 1, 1, 0, 0, 0]>, <142, 18, 32, 14, 8, 0, 1, [0, 1, 1, 0, 0, 0]>, <143, 19, 33, 14, 8, 0, 1, [0, 1, 1, 0, 0, 0]>, <144, 20, 34, 14, 8, 0, 1, [0, 1, 1, 0, 0, 0]>, <145, 21, 35, 14, 8, 0, 1, [0, 1, 1, 0, 0, 0]>, <146, 0, 18, 18, 9, 1, 0, [1, 1, 0, 0, 0, 0]>, <147, 1, 19, 18, 9, 1, 0, [1, 1, 0, 0, 0, 0]>, <148, 2, 20, 18, 9, 1, 0, [1, 1, 0, 0, 0, 0]>, <149, 3, 21, 18, 9, 1, 0, [1, 1, 0, 0, 0, 0]>, <150, 4, 22, 18, 9, 1, 0, [1, 1, 0, 0, 0, 0]>, <151, 5, 23, 18, 9, 1, 0, [1, 1, 0, 0, 0, 0]>, <152, 6, 24, 18, 9, 1, 0, [1, 1, 0, 0, 0, 0]>, <153, 8, 26, 18, 9, 1, 0, [1, 1, 0, 0, 0, 0]>, <154, 9, 27, 18, 9, 1, 0, [1, 1, 0, 0, 0, 0]>, <155, 10, 28, 18, 9, 1, 0, [1, 1, 0, 0, 0, 0]>, <156, 11, 29, 18, 9, 1, 0, [1, 1, 0, 0, 0, 0]>, <157, 12, 30, 18, 9, 1, 0, [1, 1, 0, 0, 0, 0]>, <158, 13, 31, 18, 9, 1, 0, [1, 1, 0, 0, 0, 0]>, <159, 14, 32, 18, 9, 1, 0, [1, 1, 0, 0, 0, 0]>, <160, 15, 33, 18, 9, 1, 0, [1, 1, 0, 0, 0, 0]>, <161, 16, 34, 18, 9, 1, 0, [1, 1, 0, 0, 0, 0]>, <162, 17, 35, 18, 9, 1, 0, [1, 1, 0, 0, 0, 0]>, <163, 0, 17, 17, 10, 0, 1, [1, 1, 0, 0, 0, 0]>, <164, 1, 18, 17, 10, 0, 1, [1, 1, 0, 0, 0, 0]>, <165, 2, 19, 17, 10, 0, 1, [1, 1, 0, 0, 0, 0]>, <166, 3, 20, 17, 10, 0, 1, [1, 1, 0, 0, 0, 0]>, <167, 4, 21, 17, 10, 0, 1, [1, 1, 0, 0, 0, 0]>, <168, 5, 22, 17, 10, 0, 1, [1, 1, 0, 0, 0, 0]>, <169, 6, 23, 17, 10, 0, 1, [1, 1, 0, 0, 0, 0]>, <170, 9, 26, 17, 10, 0, 1, [1, 1, 0, 0, 0, 0]>, <171, 10, 27, 17, 10, 0, 1, [1, 1, 0, 0, 0, 0]>, <172, 11, 28, 17, 10, 0, 1, [1, 1, 0, 0, 0, 0]>, <173, 12, 29, 17, 10, 0, 1, [1, 1, 0, 0, 0, 0]>, <174, 13, 30, 17, 10, 0, 1, [1, 1, 0, 0, 0, 0]>, <175, 14, 31, 17, 10, 0, 1, [1, 1, 0, 0, 0, 0]>, <176, 15, 32, 17, 10, 0, 1, [1, 1, 0, 0, 0, 0]>, <177, 16, 33, 17, 10, 0, 1, [1, 1, 0, 0, 0, 0]>, <178, 17, 34, 17, 10, 0, 1, [1, 1, 0, 0, 0, 0]>, <179, 18, 35, 17, 10, 0, 1, [1, 1, 0, 0, 0, 0]>, <180, 3, 17, 14, 11, 1, 0, [0, 0, 0, 1, 1, 0]>, <181, 4, 18, 14, 11, 1, 0, [0, 0, 0, 1, 1, 0]>, <182, 5, 19, 14, 11, 1, 0, [0, 0, 0, 1, 1, 0]>, <183, 6, 20, 14, 11, 1, 0, [0, 0, 0, 1, 1, 0]>, <184, 12, 26, 14, 11, 1, 0, [0, 0, 0, 1, 1, 0]>, <185, 13, 27, 14, 11, 1, 0, [0, 0, 0, 1, 1, 0]>, <186, 14, 28, 14, 11, 1, 0, [0, 0, 0, 1, 1, 0]>, <187, 15, 29, 14, 11, 1, 0, [0, 0, 0, 1, 1, 0]>, <188, 17, 31, 14, 11, 1, 0, [0, 0, 0, 1, 1, 0]>, <189, 18, 32, 14, 11, 1, 0, [0, 0, 0, 1, 1, 0]>, <190, 19, 33, 14, 11, 1, 0, [0, 0, 0, 1, 1, 0]>, <191, 20, 34, 14, 11, 1, 0, [0, 0, 0, 1, 1, 0]>, <192, 21, 35, 14, 11, 1, 0, [0, 0, 0, 1, 1, 0]>, <193, 0, 17, 17, 12, 0, 1, [0, 0, 0, 1, 1, 0]>, <194, 1, 18, 17, 12, 0, 1, [0, 0, 0, 1, 1, 0]>, <195, 2, 19, 17, 12, 0, 1, [0, 0, 0, 1, 1, 0]>, <196, 3, 20, 17, 12, 0, 1, [0, 0, 0, 1, 1, 0]>, <197, 4, 21, 17, 12, 0, 1, [0, 0, 0, 1, 1, 0]>, <198, 5, 22, 17, 12, 0, 1, [0, 0, 0, 1, 1, 0]>, <199, 6, 23, 17, 12, 0, 1, [0, 0, 0, 1, 1, 0]>, <200, 9, 26, 17, 12, 0, 1, [0, 0, 0, 1, 1, 0]>, <201, 10, 27, 17, 12, 0, 1, [0, 0, 0, 1, 1, 0]>, <202, 11, 28, 17, 12, 0, 1, [0, 0, 0, 1, 1, 0]>, <203, 12, 29, 17, 12, 0, 1, [0, 0, 0, 1, 1, 0]>, <204, 13, 30, 17, 12, 0, 1, [0, 0, 0, 1, 1, 0]>, <205, 14, 31, 17, 12, 0, 1, [0, 0, 0, 1, 1, 0]>, <206, 15, 32, 17, 12, 0, 1, [0, 0, 0, 1, 1, 0]>, <207, 16, 33, 17, 12, 0, 1, [0, 0, 0, 1, 1, 0]>, <208, 17, 34, 17, 12, 0, 1, [0, 0, 0, 1, 1, 0]>, <209, 18, 35, 17, 12, 0, 1, [0, 0, 0, 1, 1, 0]>, <210, 3, 17, 14, 13, 0, 0, [1, 0, 0, 0, 0, 1]>, <211, 4, 18, 14, 13, 0, 0, [1, 0, 0, 0, 0, 1]>, <212, 5, 19, 14, 13, 0, 0, [1, 0, 0, 0, 0, 1]>, <213, 6, 20, 14, 13, 0, 0, [1, 0, 0, 0, 0, 1]>, <214, 12, 26, 14, 13, 0, 0, [1, 0, 0, 0, 0, 1]>, <215, 13, 27, 14, 13, 0, 0, [1, 0, 0, 0, 0, 1]>, <216, 14, 28, 14, 13, 0, 0, [1, 0, 0, 0, 0, 1]>, <217, 15, 29, 14, 13, 0, 0, [1, 0, 0, 0, 0, 1]>, <218, 17, 31, 14, 13, 0, 0, [1, 0, 0, 0, 0, 1]>, <219, 18, 32, 14, 13, 0, 0, [1, 0, 0, 0, 0, 1]>, <220, 19, 33, 14, 13, 0, 0, [1, 0, 0, 0, 0, 1]>, <221, 20, 34, 14, 13, 0, 0, [1, 0, 0, 0, 0, 1]>, <222, 21, 35, 14, 13, 0, 0, [1, 0, 0, 0, 0, 1]>, <223, 2, 17, 15, 14, 0, 1, [0, 0, 0, 1, 1, 0]>, <224, 3, 18, 15, 14, 0, 1, [0, 0, 0, 1, 1, 0]>, <225, 4, 19, 15, 14, 0, 1, [0, 0, 0, 1, 1, 0]>, <226, 5, 20, 15, 14, 0, 1, [0, 0, 0, 1, 1, 0]>, <227, 6, 21, 15, 14, 0, 1, [0, 0, 0, 1, 1, 0]>, <228, 11, 26, 15, 14, 0, 1, [0, 0, 0, 1, 1, 0]>, <229, 12, 27, 15, 14, 0, 1, [0, 0, 0, 1, 1, 0]>, <230, 13, 28, 15, 14, 0, 1, [0, 0, 0, 1, 1, 0]>, <231, 14, 29, 15, 14, 0, 1, [0, 0, 0, 1, 1, 0]>, <232, 15, 30, 15, 14, 0, 1, [0, 0, 0, 1, 1, 0]>, <233, 16, 31, 15, 14, 0, 1, [0, 0, 0, 1, 1, 0]>, <234, 17, 32, 15, 14, 0, 1, [0, 0, 0, 1, 1, 0]>, <235, 18, 33, 15, 14, 0, 1, [0, 0, 0, 1, 1, 0]>, <236, 19, 34, 15, 14, 0, 1, [0, 0, 0, 1, 1, 0]>, <237, 20, 35, 15, 14, 0, 1, [0, 0, 0, 1, 1, 0]>};
